(set-logic ALL)
(declare-const a_random2_0 Int)
(declare-const a_random5_0 Int)
(declare-fun seed0_T_6 () Bool)
(declare-fun seed0_T_8 () Bool)
(declare-fun seed0_T_9 () Bool)
(declare-fun seed0_T_SELECT_1 () Bool)
(declare-fun seed0_T_SELECT_2 () Bool)
(declare-fun seed0_T_c () Bool)
(declare-fun seed0_I0_14 () Int)
(declare-fun seed0_I1_14 () Int)
(declare-fun seed0_I2_14 () Int)
(declare-fun seed0_PCTEMP_LHS_1 () Int)
(declare-fun seed0_PCTEMP_LHS_2 () Int)
(declare-fun seed0_T_a () Int)
(declare-fun seed0_NEW_DGNode_17 () String)
(declare-fun seed0_NEW_DGNode_21 () String)
(declare-fun seed0_NEW_DGNode_48 () String)
(declare-fun seed0_NEW_DGNode_49 () String)
(declare-fun seed0_PCTEMP_LHS_3 () String)
(declare-fun seed0_PCTEMP_LHS_4 () String)
(declare-fun seed0_T_d () String)
(assert (and (or (str.<= seed0_PCTEMP_LHS_4 seed0_NEW_DGNode_49) (or (str.contains (str.++ seed0_NEW_DGNode_48 "Tczg9E0t5kiW") (str.++ seed0_NEW_DGNode_17 "cJh")) (str.<= (str.++ seed0_NEW_DGNode_49 "IuVbMYBDpvhGtPK") (str.++ seed0_NEW_DGNode_21 "kn")))) (or (str.<= seed0_NEW_DGNode_49 seed0_NEW_DGNode_48) (and (<= (div seed0_I0_14 seed0_I2_14) (mod seed0_I0_14 seed0_I0_14)) (> (mod seed0_I0_14 seed0_PCTEMP_LHS_1) (- seed0_PCTEMP_LHS_2 (- 94))))) (or (str.<= seed0_NEW_DGNode_49 (str.++ seed0_T_d seed0_NEW_DGNode_21)) (xor (<= (mod seed0_I0_14 seed0_I0_14) (+ seed0_I1_14 (- 111))) (distinct (div seed0_I0_14 seed0_PCTEMP_LHS_2) (* seed0_I2_14 seed0_I2_14)))) (or (str.<= seed0_T_d (str.++ seed0_NEW_DGNode_17 seed0_PCTEMP_LHS_3)) (not (> (- seed0_I2_14 (- 811)) (mod seed0_I2_14 seed0_PCTEMP_LHS_1)))) (or (= seed0_NEW_DGNode_17 "__utma=") (str.suffixof (str.++ seed0_NEW_DGNode_21 "n96") (str.++ seed0_NEW_DGNode_21 "ID"))) (or (not (str.in_re seed0_PCTEMP_LHS_3 (str.to_re "-"))) (xor (str.suffixof (str.++ seed0_NEW_DGNode_48 "1fcuSIUqitp5LsHa82m") (str.++ seed0_NEW_DGNode_49 "uWy0j56pAZEImcBwdg")) (str.suffixof (str.++ seed0_PCTEMP_LHS_3 "Z8zRc") (str.++ seed0_NEW_DGNode_48 "WXYpJCmcasOVBU")))) (or (= seed0_NEW_DGNode_21 ";+") (and (str.< (str.++ seed0_NEW_DGNode_49 "M9LFgNsXjQCluI") (str.++ seed0_NEW_DGNode_48 "BW3UzbOakwl9EMpq")) (str.contains (str.++ seed0_PCTEMP_LHS_3 "9Hh5TDJvRXqjtSCc") (str.++ seed0_NEW_DGNode_48 "oAf1GrbY6j4w")))) (or (not (str.in_re seed0_NEW_DGNode_48 (str.to_re "%"))) (> (* seed0_I0_14 seed0_I0_14) (+ seed0_T_a 124))) (or (= seed0_T_SELECT_2 (not (= seed0_PCTEMP_LHS_2 (- 1)))) (=> (str.<= (str.++ seed0_PCTEMP_LHS_3 "aM") (str.++ seed0_NEW_DGNode_21 "oR9I")) (str.<= (str.++ seed0_NEW_DGNode_17 "GgJC8pc") (str.++ seed0_NEW_DGNode_48 "rKZ4vGUY9nEQxl")))) (or seed0_T_9 (str.prefixof (str.++ seed0_NEW_DGNode_21 "pQrNWILJMqgy") (str.++ seed0_NEW_DGNode_49 "V"))) (or (= seed0_T_9 (not seed0_T_8)) (or (str.< (str.++ seed0_T_d "evx5mB1EPRXqHOskAt") (str.++ seed0_PCTEMP_LHS_3 "yQMF9vcr3Enq4")) (str.<= (str.++ seed0_NEW_DGNode_49 "I3nWYv2h5BdLr") (str.++ seed0_NEW_DGNode_48 "1cb")))) (or (= seed0_T_8 (< seed0_PCTEMP_LHS_2 0)) (or (< (+ seed0_I0_14 420) (- seed0_I1_14 467)) (<= (mod seed0_PCTEMP_LHS_1 seed0_I1_14) (mod seed0_I1_14 seed0_I0_14)))) (or (= seed0_T_SELECT_1 (not (= seed0_PCTEMP_LHS_1 (- 1)))) (or (= (* seed0_I1_14 seed0_PCTEMP_LHS_2) (div seed0_I0_14 seed0_PCTEMP_LHS_1)) (>= (* seed0_I1_14 seed0_PCTEMP_LHS_1) (- seed0_I1_14 875)))) (or seed0_T_6 (xor (distinct (+ seed0_PCTEMP_LHS_2 (- 584)) (+ seed0_PCTEMP_LHS_2 (- 654))) (= (- seed0_T_a (- 772)) (+ seed0_I0_14 (- 470))))) (or (= seed0_T_6 (< (- 1) seed0_PCTEMP_LHS_1)) (and (= (* seed0_I1_14 seed0_PCTEMP_LHS_2) (div seed0_I2_14 seed0_I2_14)) (< (+ seed0_PCTEMP_LHS_2 139) (* seed0_I0_14 seed0_PCTEMP_LHS_1)))) (or (>= seed0_T_a (+ seed0_PCTEMP_LHS_1 7)) (and (str.suffixof (str.++ seed0_NEW_DGNode_49 "QlcbkH") (str.++ seed0_NEW_DGNode_21 "")) (str.<= (str.++ seed0_PCTEMP_LHS_4 "hOZ8yU3PcD") (str.++ seed0_NEW_DGNode_48 "h")))) (or (>= seed0_T_a 0) (xor (str.< (str.++ seed0_PCTEMP_LHS_3 "O6UQRMX3qwS") (str.++ seed0_T_d "")) (str.<= (str.++ seed0_NEW_DGNode_17 "7HUeSkwR6njlr") (str.++ seed0_PCTEMP_LHS_3 "ZvtryWGY0TD3V")))) (or (> (+ seed0_PCTEMP_LHS_2 a_random5_0) seed0_T_a) (not (str.<= (str.++ seed0_NEW_DGNode_49 "3msjIfNoQ") (str.++ seed0_NEW_DGNode_21 "RnCiO8fIJwBNclkLzSDd")))) (or (<= seed0_I2_14 seed0_I1_14) (or (str.contains (str.++ seed0_NEW_DGNode_49 "oaMfg5E62kx03rhle") (str.++ seed0_T_d "jdKo3e9C")) (str.prefixof (str.++ seed0_NEW_DGNode_48 "n") (str.++ seed0_NEW_DGNode_21 "sXYVUDhNf3j")))) (or (< seed0_PCTEMP_LHS_2 (+ seed0_I1_14 a_random2_0)) (or (> (+ seed0_PCTEMP_LHS_1 701) (- seed0_I1_14 (- 32))) (distinct (* seed0_I1_14 seed0_I0_14) (+ seed0_I0_14 853)))) (or (= seed0_I0_14 (- seed0_PCTEMP_LHS_2 seed0_T_a)) (xor (= (mod seed0_PCTEMP_LHS_1 seed0_T_a) (* seed0_I1_14 seed0_T_a)) (>= (+ seed0_PCTEMP_LHS_2 (- 30)) (- seed0_T_a 692)))) (or (= seed0_I0_14 (str.len seed0_PCTEMP_LHS_3)) (not (> (* seed0_T_a seed0_I2_14) (+ seed0_PCTEMP_LHS_2 (- 687))))) (or seed0_T_c (xor (str.< (str.++ seed0_PCTEMP_LHS_4 "PJgxZntywDad4QWR") (str.++ seed0_NEW_DGNode_48 "GVYPwQCl")) (str.suffixof (str.++ seed0_T_d "nJIvwRXLuSNB4FhyDa6M") (str.++ seed0_NEW_DGNode_48 "la9yGw7NrY"))))))
(assert (> a_random2_0 0))
(assert (> a_random5_0 0))
(check-sat)
(exit)